Problem:    
Rows:       68
Columns:    29 (20 integer, 20 binary)
Non-zeros:  208
Status:     INTEGER OPTIMAL
Objective:  value = 36.846843 (MINimum)

   No.   Row name        Activity     Lower bound   Upper bound
------ ------------    ------------- ------------- -------------
     1 r.5                   1036.85             0               
     2 r.6                  -963.153      -999.524               
     3 r.7                   36.8468             0               
     4 r.8                   36.8468      -998.564               
     5 r.9                   36.8468             0               
     6 r.10                  36.8468      -960.283               
     7 r.11                  1036.85             0               
     8 r.12                 -963.153      -963.318               
     9 r.13                  1036.85             0               
    10 r.14                 -963.629      -985.183               
    11 r.15                  36.8468             0               
    12 r.16                  36.8468      -987.029               
    13 r.17                  1036.85             0               
    14 r.18                 -999.836      -999.836               
    15 r.19                  36.8468             0               
    16 r.20                 0.164443      -998.706               
    17 r.21                        1             1             = 
    18 r.22                        1             1             = 
    19 r.23                        1             1             = 
    20 r.24                        1             1             = 
    21 r.25                     1001             2               
    22 r.26                    -1001         -1001               
    23 r.27                     2000      -960.283               
    24 r.28                     1001             2               
    25 r.29                    -1001         -1001               
    26 r.30                     2000      -963.318               
    27 r.31                        2             2               
    28 r.32                       -2         -1001               
    29 r.33                -0.475625      -985.183               
    30 r.34                     1000             2               
    31 r.35                    -1000         -1001               
    32 r.36                     2000      -987.029               
    33 r.37                 -963.318      -999.524               
    34 r.38                  36.6824      -998.564               
    35 r.39                 -963.318      -999.524               
    36 r.40                  36.6824      -998.564               
    37 r.41                     1001             2               
    38 r.42                    -1001         -1001               
    39 r.43                     2000      0.475625               
    40 r.44                     1001             2               
    41 r.45                    -1001         -1001               
    42 r.46                     2000         1.436               
    43 r.47                     1001             2               
    44 r.48                    -1001         -1001               
    45 r.49                  1999.52      -985.183               
    46 r.50                     1001             2               
    47 r.51                    -1001         -1001               
    48 r.52                     2000      -987.029               
    49 r.53                  36.6824      -960.283               
    50 r.54                 -963.318      -963.318               
    51 r.55                  36.6824      -960.283               
    52 r.56                 -963.318      -963.318               
    53 r.57                        2             2               
    54 r.58                       -2         -1001               
    55 r.59                 0.475625      0.475625               
    56 r.60                     1000             2               
    57 r.61                    -1000         -1001               
    58 r.62                     2000         1.436               
    59 r.63                     1001             2               
    60 r.64                    -1001         -1001               
    61 r.65                  2000.48       39.7174               
    62 r.66                     1001             2               
    63 r.67                    -1001         -1001               
    64 r.68                     2000       36.6824               
    65 r.69                 -963.793      -985.183               
    66 r.70                  36.6824      -987.029               
    67 r.71                 -963.793      -985.183               
    68 r.72                  36.6824      -987.029               

   No. Column name       Activity     Lower bound   Upper bound
------ ------------    ------------- ------------- -------------
     1 tt                    36.8468             0               
     2 s_1_1        *              1             0             1 
     3 t_1_1                       0             0               
     4 s_2_1        *              0             0             1 
     5 t_2_1                       0             0               
     6 s_1_2        *              0             0             1 
     7 t_1_2                       0             0               
     8 s_2_2        *              1             0             1 
     9 t_2_2                       0             0               
    10 s_1_3        *              1             0             1 
    11 t_1_3                0.475625             0               
    12 s_2_3        *              0             0             1 
    13 t_2_3                       0             0               
    14 s_1_4        *              1             0             1 
    15 t_1_4                 36.6824             0               
    16 s_2_4        *              0             0             1 
    17 t_2_4                 36.6824             0               
    18 r_1_1_2      *              1             0             1 
    19 u_1_1_2      *              0             0             1 
    20 r_2_1_2      *              1             0             1 
    21 u_2_1_2      *              0             0             1 
    22 r_1_1_3      *              0             0             1 
    23 u_1_1_3      *              0             0             1 
    24 r_2_1_3      *              1             0             1 
    25 u_2_1_3      *              0             0             1 
    26 r_1_2_3      *              1             0             1 
    27 u_1_2_3      *              0             0             1 
    28 r_2_2_3      *              1             0             1 
    29 u_2_2_3      *              0             0             1 

Integer feasibility conditions:

KKT.PE: max.abs.err = 0.00e+00 on row 0
        max.rel.err = 0.00e+00 on row 0
        High quality

KKT.PB: max.abs.err = 0.00e+00 on row 0
        max.rel.err = 0.00e+00 on row 0
        High quality

End of output
